
******************************************************************************
This program contains Ipopt, a library for large-scale nonlinear optimization.
 Ipopt is released as open source code under the Eclipse Public License (EPL).
         For more information visit http://projects.coin-or.org/Ipopt

This version of Ipopt was compiled from source code available at
    https://github.com/IDAES/Ipopt as part of the Institute for the Design of
    Advanced Energy Systems Process Systems Engineering Framework (IDAES PSE
    Framework) Copyright (c) 2018-2019. See https://github.com/IDAES/idaes-pse.

This version of Ipopt was compiled using HSL, a collection of Fortran codes
    for large-scale scientific computation.  All technical papers, sales and
    publicity material resulting from use of the HSL codes within IPOPT must
    contain the following acknowledgement:
        HSL, a collection of Fortran codes for large-scale scientific
        computation. See http://www.hsl.rl.ac.uk.
******************************************************************************

This is Ipopt version 3.13.2, running with linear solver ma27.

Number of nonzeros in equality constraint Jacobian...:      808
Number of nonzeros in inequality constraint Jacobian.:        0
Number of nonzeros in Lagrangian Hessian.............:      702

Total number of variables............................:      351
                     variables with only lower bounds:      108
                variables with lower and upper bounds:      189
                     variables with only upper bounds:        0
Total number of equality constraints.................:      350
Total number of inequality constraints...............:        0
        inequality constraints with only lower bounds:        0
   inequality constraints with lower and upper bounds:        0
        inequality constraints with only upper bounds:        0

iter    objective    inf_pr   inf_du lg(mu)  ||d||  lg(rg) alpha_du alpha_pr  ls
   0  0.0000000e+00 4.41e-01 6.66e-16  -1.0 0.00e+00    -  0.00e+00 0.00e+00   0
   1  1.6676773e-01 4.00e-01 6.66e+02  -1.0 2.59e+05    -  6.93e-01 9.63e-02h  1
   2  2.1864806e-01 3.94e-01 7.19e+02  -1.0 2.91e+05    -  7.09e-01 1.53e-02h  1
   3  2.2885201e+01 6.37e-02 1.03e+04  -1.0 2.91e+05    -  7.17e-01 9.90e-01h  1
   4  3.1072908e+01 2.60e-03 2.31e+02  -1.0 5.37e+04    -  9.40e-01 9.90e-01h  1
   5  3.1379762e+01 2.94e-05 8.79e+00  -1.0 1.95e+03    -  9.90e-01 9.90e-01h  1
   6  3.1381439e+01 2.85e-05 1.08e+07  -1.0 6.54e+02    -  9.90e-01 3.09e-02f  6
   7  3.1385536e+01 2.76e-05 2.16e+07  -1.0 1.66e+03    -  9.90e-01 3.09e-02f  6
   8  3.1514283e+01 1.16e-04 3.35e+05  -1.0 1.64e+03    -  1.00e+00 9.90e-01H  1
   9  3.1513858e+01 1.14e-06 1.20e+07  -1.0 5.88e+00    -  1.00e+00 9.90e-01h  1
iter    objective    inf_pr   inf_du lg(mu)  ||d||  lg(rg) alpha_du alpha_pr  ls
  10  3.1513858e+01 1.14e-08 1.20e+09  -1.0 1.03e-02    -  1.00e+00 9.90e-01h  1
  11  3.1513858e+01 1.14e-10 1.20e+11  -1.0 1.04e-04    -  1.00e+00 9.90e-01h  1
In iteration 11, 27 Slacks too small, adjusting variable bounds
  12  3.1513858e+01 1.44e-12 1.20e+13  -1.0 1.03e-06    -  1.00e+00 9.90e-01h  1
  13  3.1513858e+01 8.09e-13 3.63e-01  -1.0 7.78e-07    -  1.00e+00 1.00e+00H  1
  14  3.1513858e+01 1.06e-12 1.22e+13  -9.0 2.17e+03    -  9.97e-01 7.34e-07f 21
  15  3.1513858e+01 1.89e-12 1.22e+13  -9.0 1.69e+03    -  9.98e-01 1.17e-07f 24
  16  3.1513854e+01 1.25e-12 1.22e+13  -9.0 1.67e+03    -  1.00e+00 3.05e-05f 16
  17  3.1513853e+01 1.25e-12 1.22e+13  -9.0 1.67e+03    -  1.00e+00 7.63e-06f 18
  18  3.1513853e+01 1.55e-12 1.22e+13  -9.0 1.67e+03    -  1.00e+00 4.77e-07f 22
  19  3.1383736e+01 1.25e-03 3.99e+07  -9.0 1.67e+03    -  1.00e+00 1.00e+00f  1
iter    objective    inf_pr   inf_du lg(mu)  ||d||  lg(rg) alpha_du alpha_pr  ls
  20  3.1382133e+01 1.21e-07 9.69e-04  -9.0 1.96e+01    -  1.00e+00 1.00e+00h  1
  21  3.1382133e+01 2.33e-12 2.91e-11  -9.0 2.68e-04    -  1.00e+00 1.00e+00h  1

Number of Iterations....: 21

                                   (scaled)                 (unscaled)
Objective...............:   3.1382133207786953e+01    3.1382133207786953e+01
Dual infeasibility......:   2.9103830456733704e-11    2.9103830456733704e-11
Constraint violation....:   2.3288038164537284e-12    2.3288038164537284e-12
Complementarity.........:   9.0909105952769960e-10    9.0909105952769960e-10
Overall NLP error.......:   1.4890553761590327e-11    9.0909105952769960e-10


Number of objective function evaluations             = 152
Number of objective gradient evaluations             = 22
Number of equality constraint evaluations            = 152
Number of inequality constraint evaluations          = 0
Number of equality constraint Jacobian evaluations   = 22
Number of inequality constraint Jacobian evaluations = 0
Number of Lagrangian Hessian evaluations             = 21
Total CPU secs in IPOPT (w/o function evaluations)   =      0.046
Total CPU secs in NLP function evaluations           =      1.020

EXIT: Optimal Solution Found.
